lbl,CUST NO.,READY TIME,XCOORD.,YCOORD.,DEMAND,DUE DATE,SERVICE TIME
12,45,19,89,73,10,121,90
12,27,38,93,75,30,378,90
12,178,66,91,78,10,163,90
12,173,220,95,77,10,382,90
12,154,381,96,74,10,408,90
12,24,408,98,70,10,570,90
12,61,531,94,70,20,634,90
12,100,671,94,72,20,678,90
12,64,701,94,73,10,830,90
12,179,769,91,71,20,949,90
12,109,927,88,72,30,977,90
